
Gurobi 6.5.2 (linux64) logging started Wed Mar 15 13:02:51 2017


Gurobi 6.5.2 (linux64) logging started Wed Mar 15 13:02:51 2017

Optimize a model with 401 rows, 10150 columns and 24803 nonzeros
Coefficient statistics:
  Matrix range    [1e+00, 2e+00]
  Objective range [1e+00, 1e+02]
  Bounds range    [1e+00, 1e+00]
  RHS range       [1e+00, 1e+00]
Presolve removed 98 rows and 1 columns
Presolve time: 0.04s
Presolved: 303 rows, 10149 columns, 22532 nonzeros
Variable types: 0 continuous, 10149 integer (10149 binary)

Root relaxation: objective 1.346500e+03, 253 iterations, 0.00 seconds

    Nodes    |    Current Node    |     Objective Bounds      |     Work
 Expl Unexpl |  Obj  Depth IntInf | Incumbent    BestBd   Gap | It/Node Time

     0     0 1346.50000    0   38          - 1346.50000      -     -    0s
     0     0 1371.25000    0   11          - 1371.25000      -     -    0s
     0     0 1374.81250    0   31          - 1374.81250      -     -    0s
     0     0 1375.87500    0   34          - 1375.87500      -     -    0s
     0     0 1376.87500    0   24          - 1376.87500      -     -    0s
     0     0 1376.87500    0   26          - 1376.87500      -     -    0s
     0     0 1376.87500    0   26          - 1376.87500      -     -    0s
     0     2 1376.87500    0   20          - 1376.87500      -     -    0s
  2910  2766 1391.50000   96   26          - 1378.58571      -   5.8    5s
  4029  3461 1450.00000  166    4          - 1379.66667      -   5.9   10s

Cutting planes:
  Gomory: 22
  Cover: 42
  MIR: 1
  Zero half: 11
  Lazy constraints: 85

Explored 4115 nodes (24870 simplex iterations) in 10.01 seconds
Thread count was 8 (of 8 available processors)

Time limit reached
Best objective -, best bound 1.380000000000e+03, gap -
